NAME: concorde91
TYPE: TSP
DIMENSION: 25 
EDGE_WEIGHT_TYPE: EUC_2D
NODE_COORD_SECTION
1 34 59
2 93 38
3 92 71
4 69 11
5 77 60
6 60 85
7 77 35
8 9 31
9 23 78
10 71 25
11 2 84
12 63 75
13 67 31
14 45 46
15 68 41
16 0 32
17 6 13
18 28 91
19 47 15
20 78 84
21 37 54
22 90 11
23 52 4
24 29 28
25 24 89
